
<<< setup

Version identifier: 22.1.1.0 | 2022-11-27 | 9160aff4d
Tried aggregator 1 time.
LP Presolve eliminated 1335 rows and 1300 columns.
Reduced LP has 12 rows, 23 columns, and 39 nonzeros.
Presolve time = 0.00 sec. (2.04 ticks)

Iteration log . . .
Iteration:     1   Dual infeasibility =            62.478793
Iteration:    18   Dual objective     =           135.161179
main returns 0

<<< main


<<< done

